# Solution for model klmedian-continuous
# Objective value = 9.2040264876125366e+02
ugt[1,1] 1
ugt[1,2] 0
ugt[1,3] 0
ugt[1,4] 0
ugt[2,1] 0
ugt[2,2] 0
ugt[2,3] 0
ugt[2,4] 0
ugt[3,1] 0
ugt[3,2] 1
ugt[3,3] 0
ugt[3,4] 0
ugt[4,1] 0
ugt[4,2] 0
ugt[4,3] 0
ugt[4,4] 0
mugt[1,1] 1
mugt[1,2] 0
mugt[1,3] 0
mugt[1,4] 0
mugt[2,1] 1
mugt[2,2] 0
mugt[2,3] 0
mugt[2,4] 0
mugt[3,1] 0
mugt[3,2] 1
mugt[3,3] 0
mugt[3,4] 0
mugt[4,1] 0
mugt[4,2] 1
mugt[4,3] 0
mugt[4,4] 0
kt[1] 0
kt[2] 0
kt[3] 0
kt[4] 0
pgt[1,1] 2.2360682728738055e+01
pgt[1,2] 0
pgt[1,3] 0
pgt[1,4] 0
pgt[2,1] 2.0000000171302865e+01
pgt[2,2] 0
pgt[2,3] 0
pgt[2,4] 0
pgt[3,1] 0
pgt[3,2] 2.7403124307678745e+01
pgt[3,3] 0
pgt[3,4] 0
pgt[4,1] 0
pgt[4,2] 2.2105318396353923e+01
pgt[4,3] 0
pgt[4,4] 0
dgLt[1,1] 3.9388810217496918e+01
dgLt[1,2] 8.9247573664402879e+01
dgLt[1,3] 1.0076580504570923e+02
dgLt[1,4] 1.0089520339881059e+02
dgLt[2,1] 9.1867821365515624e+01
dgLt[2,2] 88.5903348638554
dgLt[2,3] 9.8926277482890171e+01
dgLt[2,4] 9.9433457309718051e+01
dgLt[3,1] 9.5024900441766150e+01
dgLt[3,2] 2.3264666046671419e+01
dgLt[3,3] 9.7709617829232442e+01
dgLt[3,4] 9.8359505712577459e+01
dgLt[4,1] 9.8555685989094542e+01
dgLt[4,2] 9.3388288566295969e+01
dgLt[4,3] 98.2003736633382
dgLt[4,4] 9.9349155709083846e+01
difgLt[1,1,0] 8.54440031387042
difgLt[1,1,1] 3.8450897995796780e+01
difgLt[1,2,0] 6.0207929640278550e+01
difgLt[1,2,1] 6.0836794954954790e+01
difgLt[1,3,0] 8.1801543939152239e+01
difgLt[1,3,1] 5.5400422609497852e+01
difgLt[1,4,0] 8.5497323870136512e+01
difgLt[1,4,1] 4.9587723058241238e+01
difgLt[2,1,0] 65.8542919494479
difgLt[2,1,1] 5.8550336694139993e+01
difgLt[2,2,0] 5.9321730976288748e+01
difgLt[2,2,1] 5.9393397315055616e+01
difgLt[2,3,0] 7.5869409590485034e+01
difgLt[2,3,1] 5.9073517998945377e+01
difgLt[2,4,0] 7.6754369365911316e+01
difgLt[2,4,1] 5.9213313288955128e+01
difgLt[3,1,0] 7.6532911436932579e+01
difgLt[3,1,1] 5.2086445230448760e+01
difgLt[3,2,0] 1.9594340142895277e+01
difgLt[3,2,1] 1.2542189472665317e+01
difgLt[3,3,0] 6.8163836491960410e+01
difgLt[3,3,1] 6.4921556853992271e+01
difgLt[3,4,0] 6.7701187539403847e+01
difgLt[3,4,1] 6.6987602004445478e+01
difgLt[4,1,0] 8.4477860027555238e+01
difgLt[4,1,1] 4.8073366225789748e+01
difgLt[4,2,0] 6.3285771675053816e+01
difgLt[4,2,1] 64.7043375065724
difgLt[4,3,0] 6.3151676970882328e+01
difgLt[4,3,1] 7.1124710032317367e+01
difgLt[4,4,0] 5.8953906227723678e+01
difgLt[4,4,1] 7.7123093753128458e+01
pgLt[1,1] 3.9388810217496918e+01
pgLt[1,2] 1.6839614809750784e-07
pgLt[1,3] 4.4521355655711393e-07
pgLt[1,4] 4.4822907385805550e-07
pgLt[2,1] 1.8725241306360281e-07
pgLt[2,2] 1.7253200522276669e-07
pgLt[2,3] 4.8957196827423655e-07
pgLt[2,4] 4.9030199453185159e-07
pgLt[3,1] 1.8282390654361672e-07
pgLt[3,2] 2.3264666046671419e+01
pgLt[3,3] 4.8617291215349645e-07
pgLt[3,4] 4.8622958132826269e-07
pgLt[4,1] 1.7995412784042451e-07
pgLt[4,2] 1.6895693863592508e-07
pgLt[4,3] 4.7224144125761510e-07
pgLt[4,4] 4.7064494569164907e-07
yggt[1,2,1] 1
yggt[1,2,2] 0
yggt[1,2,3] 0
yggt[1,2,4] 0
yggt[1,3,1] 0
yggt[1,3,2] 0
yggt[1,3,3] 0
yggt[1,3,4] 0
yggt[1,4,1] 0
yggt[1,4,2] 0
yggt[1,4,3] 0
yggt[1,4,4] 0
yggt[2,1,1] 0
yggt[2,1,2] 0
yggt[2,1,3] 0
yggt[2,1,4] 0
yggt[2,3,1] 0
yggt[2,3,2] 0
yggt[2,3,3] 0
yggt[2,3,4] 0
yggt[2,4,1] 0
yggt[2,4,2] 0
yggt[2,4,3] 0
yggt[2,4,4] 0
yggt[3,1,1] 0
yggt[3,1,2] 0
yggt[3,1,3] 0
yggt[3,1,4] 0
yggt[3,2,1] 0
yggt[3,2,2] 0
yggt[3,2,3] 0
yggt[3,2,4] 0
yggt[3,4,1] 0
yggt[3,4,2] 1
yggt[3,4,3] 0
yggt[3,4,4] 0
yggt[4,1,1] 0
yggt[4,1,2] 0
yggt[4,1,3] 0
yggt[4,1,4] 0
yggt[4,2,1] 0
yggt[4,2,2] 0
yggt[4,2,3] 0
yggt[4,2,4] 0
yggt[4,3,1] 0
yggt[4,3,2] 0
yggt[4,3,3] 0
yggt[4,3,4] 0
Dggt[1,2,1] 2.9154759417649483e+01
Dggt[1,2,2] 39.8739424378029
Dggt[1,2,3] 4.1547700443278231e+01
Dggt[1,2,4] 4.1544493505049189e+01
Dggt[1,3,1] 7.3606835292744790e+01
Dggt[1,3,2] 7.3442032354250586e+01
Dggt[1,3,3] 7.6390897462635536e+01
Dggt[1,3,4] 7.6388510069032208e+01
Dggt[1,4,1] 1.0157424190314406e+02
Dggt[1,4,2] 1.0145527938842427e+02
Dggt[1,4,3] 1.0270336527599126e+02
Dggt[1,4,4] 1.0270893316158768e+02
Dggt[2,1,1] 4.0575932631385477e+01
Dggt[2,1,2] 4.0433602286262811e+01
Dggt[2,1,3] 4.1830476716929738e+01
Dggt[2,1,4] 4.1836541097008983e+01
Dggt[2,3,1] 4.7997877914690235e+01
Dggt[2,3,2] 4.7878720908224714e+01
Dggt[2,3,3] 4.8733985596394049e+01
Dggt[2,3,4] 4.8734174371648344e+01
Dggt[2,4,1] 7.4678906273511245e+01
Dggt[2,4,2] 7.4655491191228592e+01
Dggt[2,4,3] 7.4823993371329721e+01
Dggt[2,4,4] 7.4823968014537442e+01
Dggt[3,1,1] 7.7139599777028948e+01
Dggt[3,1,2] 7.7064734184526927e+01
Dggt[3,1,3] 7.7612049787222332e+01
Dggt[3,1,4] 7.7614934044685313e+01
Dggt[3,2,1] 4.7410845301883263e+01
Dggt[3,2,2] 4.7297180375522878e+01
Dggt[3,2,3] 4.8476178082221971e+01
Dggt[3,2,4] 4.8480371147047627e+01
Dggt[3,4,1] 4.0767724635998761e+01
Dggt[3,4,2] 2.4018202495270746e+01
Dggt[3,4,3] 41.9360717917518
Dggt[3,4,4] 4.1943229433599953e+01
Dggt[4,1,1] 1.0108073873386428e+02
Dggt[4,1,2] 1.0095302948650196e+02
Dggt[4,1,3] 1.0259494927477682e+02
Dggt[4,1,4] 1.0259769694892103e+02
Dggt[4,2,1] 7.0199348317296511e+01
Dggt[4,2,2] 7.0004385661496428e+01
Dggt[4,2,3] 7.3133804009444191e+01
Dggt[4,2,4] 7.3132186663825550e+01
Dggt[4,3,1] 3.8705615197915954e+01
Dggt[4,3,2] 3.8545945907775859e+01
Dggt[4,3,3] 4.1030333766217737e+01
Dggt[4,3,4] 41.0299428285502
difggt[1,2,1,0] 1.4999999763073669e+01
difggt[1,2,1,1] 25
difggt[1,2,2,0] 2.8054453427694636e+01
difggt[1,2,2,1] 25
difggt[1,2,3,0] 3.1216824327424703e+01
difggt[1,2,3,1] 25
difggt[1,2,4,0] 3.1227986730542238e+01
difggt[1,2,4,1] 25
difggt[1,3,1,0] 40
difggt[1,3,1,1] 5.8484648005876615e+01
difggt[1,3,2,0] 40
difggt[1,3,2,1] 5.8451984137321929e+01
difggt[1,3,3,0] 40
difggt[1,3,3,1] 6.3051755703440669e+01
difggt[1,3,4,0] 40
difggt[1,3,4,1] 6.3050306763564016e+01
difggt[1,4,1,0] 6.7356363925626837e+01
difggt[1,4,1,1] 7.5366101877047072e+01
difggt[1,4,2,0] 6.7232603447042436e+01
difggt[1,4,2,1] 7.5344213850076784e+01
difggt[1,4,3,0] 6.8071844379397589e+01
difggt[1,4,3,1] 7.6440272051553521e+01
difggt[1,4,4,0] 6.8068466922991490e+01
difggt[1,4,4,1] 7.6453933987575468e+01
difggt[2,1,1,0] 2.8888191290367377e+01
difggt[2,1,1,1] 2.7324620500035770e+01
difggt[2,1,2,0] 2.8852219101866666e+01
difggt[2,1,2,1] 2.7208188362107684e+01
difggt[2,1,3,0] 3.0127239386872336e+01
difggt[2,1,3,1] 2.8349105314950162e+01
difggt[2,1,4,0] 3.0157498980154191e+01
difggt[2,1,4,1] 2.8331168573863987e+01
difggt[2,3,1,0] 35
difggt[2,3,1,1] 3.0876400142267364e+01
difggt[2,3,2,0] 35
difggt[2,3,2,1] 3.0868167671180139e+01
difggt[2,3,3,0] 35
difggt[2,3,3,1] 3.2607070336932736e+01
difggt[2,3,4,0] 35
difggt[2,3,4,1] 3.2638897541861240e+01
difggt[2,4,1,0] 5.2379289066047313e+01
difggt[2,4,1,1] 5.3135173650654963e+01
difggt[2,4,2,0] 5.2366721850665861e+01
difggt[2,4,2,1] 5.3116556011275641e+01
difggt[2,4,3,0] 5.2446955795281717e+01
difggt[2,4,3,1] 5.3288203877619040e+01
difggt[2,4,4,0] 5.2443017171777825e+01
difggt[2,4,4,1] 5.3291844618518546e+01
difggt[3,1,1,0] 5.5143509185538370e+01
difggt[3,1,1,1] 5.3582745686245545e+01
difggt[3,1,2,0] 5.5124658337856928e+01
difggt[3,1,2,1] 5.3512571583907949e+01
difggt[3,1,3,0] 5.5709180694342230e+01
difggt[3,1,3,1] 5.3773743299704464e+01
difggt[3,1,4,0] 5.5723800528874413e+01
difggt[3,1,4,1] 5.3765048059247640e+01
difggt[3,2,1,0] 3.7911518946005906e+01
difggt[3,2,1,1] 25
difggt[3,2,2,0] 3.7932843157239489e+01
difggt[3,2,2,1] 25
difggt[3,2,3,0] 4.0329095817307461e+01
difggt[3,2,3,1] 25
difggt[3,2,4,0] 4.0354627183480375e+01
difggt[3,2,4,1] 25
difggt[3,4,1,0] 2.8387913586700705e+01
difggt[3,4,1,1] 2.8228300525367789e+01
difggt[3,4,2,0] 1.6597122166672012e+01
difggt[3,4,2,1] 1.7361151545130188e+01
difggt[3,4,3,0] 2.9300366249031494e+01
difggt[3,4,3,1] 2.9397359948991493e+01
difggt[3,4,4,0] 2.9301853300108043e+01
difggt[3,4,4,1] 2.9410416490274606e+01
difggt[4,1,1,0] 7.4168614536317207e+01
difggt[4,1,1,1] 6.7639370707449160e+01
difggt[4,1,2,0] 7.4121767592469141e+01
difggt[4,1,2,1] 6.7541167468705851e+01
difggt[4,1,3,0] 7.5503222369694271e+01
difggt[4,1,3,1] 68.7682505713289
difggt[4,1,4,0] 75.5262598372209
difggt[4,1,4,1] 6.8749633751377317e+01
difggt[4,2,1,0] 5.9947528048178505e+01
difggt[4,2,1,1] 30
difggt[4,2,2,0] 5.9860632014259778e+01
difggt[4,2,2,1] 30
difggt[4,2,3,0] 6.4758710795730352e+01
difggt[4,2,3,1] 30
difggt[4,2,4,0] 6.4755387063985523e+01
difggt[4,2,4,1] 30
difggt[4,3,1,0] 10
difggt[4,3,1,1] 3.4189820876595626e+01
difggt[4,3,2,0] 10
difggt[4,3,2,1] 3.4153012134908131e+01
difggt[4,3,3,0] 10
difggt[4,3,3,1] 3.8289552170128005e+01
difggt[4,3,4,0] 10
difggt[4,3,4,1] 3.8287581375250319e+01
pggt[1,2,1] 2.9154759417649483e+01
pggt[1,2,2] 1.0766514503567949e-07
pggt[1,2,3] 4.88624535519213e-07
pggt[1,2,4] 4.91129979523883e-07
pggt[1,3,1] 1.3316600877128215e-07
pggt[1,3,2] 1.3238247118218603e-07
pggt[1,3,3] 4.6050512340039346e-07
pggt[1,3,4] 4.6577367480176651e-07
pggt[1,4,1] 1.2300368357793380e-07
pggt[1,4,2] 1.1408869130270549e-07
pggt[1,4,3] 5.1101405844206546e-07
pggt[1,4,4] 5.0785427476425049e-07
pggt[2,1,1] 1.1442341219348470e-07
pggt[2,1,2] 1.0522205495392938e-07
pggt[2,1,3] 4.9222383890097835e-07
pggt[2,1,4] 4.8676397831778106e-07
pggt[2,3,1] 1.2889752115131476e-07
pggt[2,3,2] 1.2156406541700852e-07
pggt[2,3,3] 4.5880100649477503e-07
pggt[2,3,4] 4.6025284184823149e-07
pggt[2,4,1] 2.0415909076859444e-07
pggt[2,4,2] 2.2325637750813643e-07
pggt[2,4,3] 6.6039577291006064e-07
pggt[2,4,4] 6.9095173466069107e-07
pggt[3,1,1] 1.7757764026358394e-07
pggt[3,1,2] 1.5878305930923111e-07
pggt[3,1,3] 4.5076457649571356e-07
pggt[3,1,4] 4.80742791175253e-07
pggt[3,2,1] 1.1744996673424386e-07
pggt[3,2,2] 1.1000639575489335e-07
pggt[3,2,3] 4.7540983379986689e-07
pggt[3,2,4] 4.7342752269366925e-07
pggt[3,4,1] 1.1594247730801321e-07
pggt[3,4,2] 2.4018202495270746e+01
pggt[3,4,3] 4.8464642600909464e-07
pggt[3,4,4] 4.8071053223228946e-07
pggt[4,1,1] 1.1165763238343040e-07
pggt[4,1,2] 1.0341712043649809e-07
pggt[4,1,3] 5.2882880481949909e-07
pggt[4,1,4] 5.2345909217526085e-07
pggt[4,2,1] 1.4417214387735471e-07
pggt[4,2,2] 1.4098091282323197e-07
pggt[4,2,3] 4.5357217355954991e-07
pggt[4,2,4] 4.5776865611717758e-07
pggt[4,3,1] 1.3241000678916310e-07
pggt[4,3,2] 1.3127245154200583e-07
pggt[4,3,3] 4.4095462966051052e-07
pggt[4,3,4] 4.4525592854591697e-07
C356 0
C357 0
C358 0
C359 0
C360 0
C361 0
C362 0
C363 0
C364 0
C365 0
C366 0
C367 0
C368 0
C369 0
C370 0
C371 0
vgt[1,1] 0
vgt[1,2] 0
vgt[1,3] 0
vgt[1,4] 0
vgt[2,1] 1
vgt[2,2] 0
vgt[2,3] 0
vgt[2,4] 0
vgt[3,1] 0
vgt[3,2] 0
vgt[3,3] 0
vgt[3,4] 0
vgt[4,1] 0
vgt[4,2] 1
vgt[4,3] 0
vgt[4,4] 0
dgRt[1,1] 8.9393861027537966e+01
dgRt[1,2] 9.4875373826545612e+01
dgRt[1,3] 9.9952108612057316e+01
dgRt[1,4] 1.0010847072241013e+02
dgRt[2,1] 9.0957458736088359e+00
dgRt[2,2] 9.3432637997070870e+01
dgRt[2,3] 9.9457669048999009e+01
dgRt[2,4] 9.9823900728703876e+01
dgRt[3,1] 9.1490391414106611e+01
dgRt[3,2] 89.7247100588699
dgRt[3,3] 98.2742010686468
dgRt[3,4] 9.9141323633852650e+01
dgRt[4,1] 9.2558378064311640e+01
dgRt[4,2] 2.3208687817668153e+01
dgRt[4,3] 9.8240414691508377e+01
dgRt[4,4] 9.9164468684990254e+01
difgRt[1,1,0] 5.9660127022480971e+01
difgRt[1,1,1] 6.0616813020250468e+01
difgRt[1,2,0] 7.3186032925896143e+01
difgRt[1,2,1] 5.6754344944591480e+01
difgRt[1,3,0] 7.9874514806774485e+01
difgRt[1,3,1] 5.6529973776488589e+01
difgRt[1,4,0] 8.1820087885119918e+01
difgRt[1,4,1] 5.4187904292415766e+01
difgRt[2,1,0] 7.6607868670342389e+00
difgRt[2,1,1] 4.9035636290550322e+00
difgRt[2,2,0] 7.2331820830024142e+01
difgRt[2,2,1] 5.4496073546904967e+01
difgRt[2,3,0] 78.3909665184564
difgRt[2,3,1] 5.7169585795394482e+01
difgRt[2,4,0] 7.9504438546604831e+01
difgRt[2,4,1] 5.6732135346600245e+01
difgRt[3,1,0] 6.1643865726296767e+01
difgRt[3,1,1] 6.2675850613575562e+01
difgRt[3,2,0] 6.1843621797039084e+01
difgRt[3,2,1] 5.8792934934199465e+01
difgRt[3,3,0] 6.7050179153515828e+01
difgRt[3,3,1] 6.7453473936986356e+01
difgRt[3,4,0] 6.4288424366905019e+01
difgRt[3,4,1] 7.2033404379448726e+01
difgRt[4,1,0] 63.7607647708049
difgRt[4,1,1] 6.2865803078050781e+01
difgRt[4,2,0] 6.8254523679685759e+00
difgRt[4,2,1] 22.1823440940895
difgRt[4,3,0] 6.5130769455931869e+01
difgRt[4,3,1] 6.9312915954421186e+01
difgRt[4,4,0] 6.1396938214495215e+01
difgRt[4,4,1] 7.4566713302425384e+01
pgRt[1,1] 1.8539362287618179e-07
pgRt[1,2] 1.6742506267494290e-07
pgRt[1,3] 4.6382288563585283e-07
pgRt[1,4] 4.7152332923784249e-07
pgRt[2,1] 9.0957458736088359e+00
pgRt[2,2] 1.6862596318089639e-07
pgRt[2,3] 4.7571498926325319e-07
pgRt[2,4] 4.7937971314349459e-07
pgRt[3,1] 1.8373046694420606e-07
pgRt[3,2] 1.71974899616008e-07
pgRt[3,3] 4.8470286525320812e-07
pgRt[3,4] 4.8425470560960631e-07
pgRt[4,1] 1.8256456710010115e-07
pgRt[4,2] 2.3208687817668153e+01
pgRt[4,3] 4.8062325039544110e-07
pgRt[4,4] 4.8050458305976675e-07
dRLt[0] 5.2806632443449452e+01
dRLt[1] 9.1955746930567717e+00
dRLt[2] 9.0638117766197421e+00
dRLt[3] 9.9826234344091915e+00
dRLt[4] 1.4567853466033544e+01
difRLt[0,0] 1.1455600522073038e+01
difRLt[0,1] 5.1549099243006758e+01
difRLt[1,0] 7.7448730858391057e+00
difRLt[1,1] 4.9573714759303895e+00
difRLt[2,0] 2.6658181644558847e+00
difRLt[2,1] 8.6629148837912862e+00
difRLt[3,0] 2.9359986204400563e+00
difRLt[3,1] 9.5411046249399476e+00
difRLt[4,0] 4.2844302859072529e+00
difRLt[4,1] 1.3923577094595858e+01
dLRt[0] 0
dLRt[1] 5.9999999522051382e+01
dLRt[2] 5.9999999632739772e+01
dLRt[3] 5.2636557265595227e+00
dLRt[4] 5.9207248846547964e+00
dLRt[5] 0
difLRt[0,0] 0
difLRt[0,1] 0
difLRt[1,0] 4.3012227346464741e+01
difLRt[1,1] 36.6272493752651
difLRt[2,0] 4.6451257889181484e+01
difLRt[2,1] 3.3086854732437423e+01
difLRt[3,0] 1.5474763869002706e+00
difLRt[3,1] 5.0310418090540123e+00
difLRt[4,0] 1.7408329926856005e+00
difLRt[4,1] 5.6590172951945572e+00
difLRt[5,0] 0
difLRt[5,1] 0
xLt[0,0] 0
xLt[0,1] 0
xLt[1,0] 1.1455599447335773e+01
xLt[1,1] 5.1549099370334972e+01
xLt[2,0] 5.0405660085945222e+01
xLt[2,1] 6.5139065330377079e+01
xLt[3,0] 8.9491267006287174e+01
xLt[3,1] 6.5845259302740985e+01
xLt[4,0] 9.3974738561710836e+01
xLt[4,1] 8.0417405733606671e+01
xLt[5,0] 100
xLt[5,1] 100
xRt[0,0] 0
xRt[0,1] 0
xRt[1,0] 4.2660787046571166e+01
xRt[1,1] 7.0096436562765064e+01
xRt[2,0] 8.6825450040635744e+01
xRt[2,1] 5.7182344465555985e+01
xRt[3,0] 9.1038740988013927e+01
xRt[3,1] 7.0876301182459443e+01
xRt[4,0] 9.5715570728259934e+01
xRt[4,1] 8.6076423057274752e+01
xRt[5,0] 100
xRt[5,1] 100
landa[1] 0
landa[2] 0
landa[3] 0
landa[4] 0
rho[1] 0
rho[2] 0
rho[3] 0
rho[4] 0
gammaR[1,0] 0
gammaR[1,1] 2.6419055210169518e-07
gammaR[1,2] 9.9999973580944790e-01
gammaR[1,3] 0
gammaR[1,4] 0
gammaR[2,0] 0
gammaR[2,1] 1.7130286522615279e-08
gammaR[2,2] 9.9999998286971348e-01
gammaR[2,3] 0
gammaR[2,4] 0
gammaR[3,0] 0
gammaR[3,1] 0
gammaR[3,2] 6.5669654754472084e-01
gammaR[3,3] 3.4330345245527866e-01
gammaR[3,4] 0
gammaR[3,5] 0
gammaR[4,0] 0
gammaR[4,1] 3.4028781093085581e-01
gammaR[4,2] 6.5971218906914331e-01
gammaR[4,3] 0
gammaR[4,4] 0
gammaL[1,0] 0
gammaL[1,1] 0
gammaL[1,2] 0
gammaL[1,3] 0
gammaL[1,4] 1
gammaL[2,0] 0
gammaL[2,1] 0
gammaL[2,2] 0
gammaL[2,3] 0
gammaL[2,4] 1
gammaL[3,0] 0
gammaL[3,1] 0
gammaL[3,2] 0
gammaL[3,3] 0
gammaL[3,4] 0
gammaL[3,5] 1
gammaL[4,0] 0
gammaL[4,1] 0
gammaL[4,2] 0
gammaL[4,3] 0
gammaL[4,4] 1
muR[1,0] 0
muR[1,1] 1
muR[1,2] 0
muR[1,3] 0
muR[2,0] 0
muR[2,1] 1
muR[2,2] 0
muR[2,3] 0
muR[3,0] 0
muR[3,1] 1.1102230246251565e-16
muR[3,2] 9.9999999999999989e-01
muR[3,3] 0
muR[3,4] 0
muR[4,0] 0
muR[4,1] 1
muR[4,2] 0
muR[4,3] 0
muL[1,0] 0
muL[1,1] 0
muL[1,2] 0
muL[1,3] 1
muL[2,0] 0
muL[2,1] 0
muL[2,2] 0
muL[2,3] 1
muL[3,0] 0
muL[3,1] 0
muL[3,2] 0
muL[3,3] 0
muL[3,4] 1
muL[4,0] 0
muL[4,1] 0
muL[4,2] 0
muL[4,3] 1
u[1] 0
u[2] 0
u[3] 0
u[4] 0
dt[1] 2.2360682728738055e+01
dt[2] 2.0000000171302865e+01
dt[3] 2.7403124307678745e+01
dt[4] 2.2105318396353923e+01
zsegm1segm2[1,0,0] 0
zsegm1segm2[1,0,1] 0
zsegm1segm2[1,0,2] 0
zsegm1segm2[1,0,3] 0
zsegm1segm2[1,1,0] 0
zsegm1segm2[1,1,1] 0
zsegm1segm2[1,1,2] 0
zsegm1segm2[1,1,3] 1
zsegm1segm2[1,2,0] 0
zsegm1segm2[1,2,1] 0
zsegm1segm2[1,2,2] 0
zsegm1segm2[1,2,3] 0
zsegm1segm2[1,3,0] 0
zsegm1segm2[1,3,1] 0
zsegm1segm2[1,3,2] 0
zsegm1segm2[1,3,3] 0
zsegm1segm2[2,0,0] 0
zsegm1segm2[2,0,1] 0
zsegm1segm2[2,0,2] 0
zsegm1segm2[2,0,3] 0
zsegm1segm2[2,1,0] 0
zsegm1segm2[2,1,1] 0
zsegm1segm2[2,1,2] 0
zsegm1segm2[2,1,3] 1
zsegm1segm2[2,2,0] 0
zsegm1segm2[2,2,1] 0
zsegm1segm2[2,2,2] 0
zsegm1segm2[2,2,3] 0
zsegm1segm2[2,3,0] 0
zsegm1segm2[2,3,1] 0
zsegm1segm2[2,3,2] 0
zsegm1segm2[2,3,3] 0
zsegm1segm2[3,0,0] 0
zsegm1segm2[3,0,1] 0
zsegm1segm2[3,0,2] 0
zsegm1segm2[3,0,3] 0
zsegm1segm2[3,0,4] 0
zsegm1segm2[3,1,0] 0
zsegm1segm2[3,1,1] 0
zsegm1segm2[3,1,2] 0
zsegm1segm2[3,1,3] 0
zsegm1segm2[3,1,4] 1.1102230246251565e-16
zsegm1segm2[3,2,0] 0
zsegm1segm2[3,2,1] 0
zsegm1segm2[3,2,2] 0
zsegm1segm2[3,2,3] 0
zsegm1segm2[3,2,4] 9.9999999999999989e-01
zsegm1segm2[3,3,0] 0
zsegm1segm2[3,3,1] 0
zsegm1segm2[3,3,2] 0
zsegm1segm2[3,3,3] 0
zsegm1segm2[3,3,4] 0
zsegm1segm2[3,4,0] 0
zsegm1segm2[3,4,1] 0
zsegm1segm2[3,4,2] 0
zsegm1segm2[3,4,3] 0
zsegm1segm2[3,4,4] 0
zsegm1segm2[4,0,0] 0
zsegm1segm2[4,0,1] 0
zsegm1segm2[4,0,2] 0
zsegm1segm2[4,0,3] 0
zsegm1segm2[4,1,0] 0
zsegm1segm2[4,1,1] 0
zsegm1segm2[4,1,2] 0
zsegm1segm2[4,1,3] 1
zsegm1segm2[4,2,0] 0
zsegm1segm2[4,2,1] 0
zsegm1segm2[4,2,2] 0
zsegm1segm2[4,2,3] 0
zsegm1segm2[4,3,0] 0
zsegm1segm2[4,3,1] 0
zsegm1segm2[4,3,2] 0
zsegm1segm2[4,3,3] 0
dsegm1segm2[1,0,0] 0
dsegm1segm2[1,0,1] 1.1180339887498949e+01
dsegm1segm2[1,0,2] 2.2360679774997898e+01
dsegm1segm2[1,0,3] 3.3541019662496851e+01
dsegm1segm2[1,1,0] 1.1180336933758781e+01
dsegm1segm2[1,1,1] 2.9537401675629520e-06
dsegm1segm2[1,1,2] 1.1180342841239117e+01
dsegm1segm2[1,1,3] 2.2360682728738066e+01
dsegm1segm2[1,2,0] 1.1180342841239117e+01
dsegm1segm2[1,2,1] 2.9537401680101993e-06
dsegm1segm2[1,2,2] 1.1180336933758781e+01
dsegm1segm2[1,2,3] 2.2360676821257730e+01
dsegm1segm2[1,3,0] 3.3541019662496851e+01
dsegm1segm2[1,3,1] 2.2360679774997898e+01
dsegm1segm2[1,3,2] 1.1180339887498949e+01
dsegm1segm2[1,3,3] 0
dsegm1segm2[2,0,0] 0
dsegm1segm2[2,0,1] 10
dsegm1segm2[2,0,2] 20
dsegm1segm2[2,0,3] 30
dsegm1segm2[2,1,0] 9.9999998286971348e+00
dsegm1segm2[2,1,1] 1.7130286522615279e-07
dsegm1segm2[2,1,2] 1.0000000171302865e+01
dsegm1segm2[2,1,3] 2.0000000171302865e+01
dsegm1segm2[2,2,0] 1.0000000171302865e+01
dsegm1segm2[2,2,1] 1.7130286522615279e-07
dsegm1segm2[2,2,2] 9.9999998286971348e+00
dsegm1segm2[2,2,3] 1.9999999828697135e+01
dsegm1segm2[2,3,0] 30
dsegm1segm2[2,3,1] 20
dsegm1segm2[2,3,2] 10
dsegm1segm2[2,3,3] 0
dsegm1segm2[3,0,0] 0
dsegm1segm2[3,0,1] 10
dsegm1segm2[3,0,2] 17
dsegm1segm2[3,0,3] 27
dsegm1segm2[3,0,4] 39.8062484748657
dsegm1segm2[3,1,0] 10
dsegm1segm2[3,1,1] 0
dsegm1segm2[3,1,2] 7
dsegm1segm2[3,1,3] 17
dsegm1segm2[3,1,4] 2.9806248474865697e+01
dsegm1segm2[3,2,0] 1.2403124167186954e+01
dsegm1segm2[3,2,1] 2.4031241671869541e+00
dsegm1segm2[3,2,2] 4.5968758328130459e+00
dsegm1segm2[3,2,3] 1.4596875832813046e+01
dsegm1segm2[3,2,4] 2.7403124307678745e+01
dsegm1segm2[3,3,0] 2.3566965475447212e+01
dsegm1segm2[3,3,1] 1.3566965475447214e+01
dsegm1segm2[3,3,2] 6.5669654754472138e+00
dsegm1segm2[3,3,3] 3.4330345245527867e+00
dsegm1segm2[3,3,4] 1.6239282999418485e+01
dsegm1segm2[3,4,0] 39.8062484748657
dsegm1segm2[3,4,1] 2.9806248474865697e+01
dsegm1segm2[3,4,2] 2.2806248474865697e+01
dsegm1segm2[3,4,3] 1.2806248474865697e+01
dsegm1segm2[3,4,4] 0
dsegm1segm2[4,0,0] 0
dsegm1segm2[4,0,1] 1.0770329614269007e+01
dsegm1segm2[4,0,2] 1.8770329614269009e+01
dsegm1segm2[4,0,3] 2.9210636123179562e+01
dsegm1segm2[4,1,0] 7.1053177268256382e+00
dsegm1segm2[4,1,1] 3.6650118874433693e+00
dsegm1segm2[4,1,2] 1.1665011887443370e+01
dsegm1segm2[4,1,3] 2.2105318396353923e+01
dsegm1segm2[4,2,0] 1.3492632101715863e+01
dsegm1segm2[4,2,1] 2.7223024874468535e+00
dsegm1segm2[4,2,2] 5.2776975125531465e+00
dsegm1segm2[4,2,3] 1.5718004021463697e+01
dsegm1segm2[4,3,0] 2.9210636123179562e+01
dsegm1segm2[4,3,1] 1.8440306508910552e+01
dsegm1segm2[4,3,2] 1.0440306508910551e+01
dsegm1segm2[4,3,3] 0
psegm1segm2[1,0,0] 0
psegm1segm2[1,0,1] 0
psegm1segm2[1,0,2] 0
psegm1segm2[1,0,3] 0
psegm1segm2[1,1,0] 0
psegm1segm2[1,1,1] 0
psegm1segm2[1,1,2] 0
psegm1segm2[1,1,3] 2.2360682728738055e+01
psegm1segm2[1,2,0] 0
psegm1segm2[1,2,1] 0
psegm1segm2[1,2,2] 0
psegm1segm2[1,2,3] 0
psegm1segm2[1,3,0] 0
psegm1segm2[1,3,1] 0
psegm1segm2[1,3,2] 0
psegm1segm2[1,3,3] 0
psegm1segm2[2,0,0] 0
psegm1segm2[2,0,1] 0
psegm1segm2[2,0,2] 0
psegm1segm2[2,0,3] 0
psegm1segm2[2,1,0] 0
psegm1segm2[2,1,1] 0
psegm1segm2[2,1,2] 0
psegm1segm2[2,1,3] 2.0000000171302865e+01
psegm1segm2[2,2,0] 0
psegm1segm2[2,2,1] 0
psegm1segm2[2,2,2] 0
psegm1segm2[2,2,3] 0
psegm1segm2[2,3,0] 0
psegm1segm2[2,3,1] 0
psegm1segm2[2,3,2] 0
psegm1segm2[2,3,3] 0
psegm1segm2[3,0,0] 0
psegm1segm2[3,0,1] 0
psegm1segm2[3,0,2] 0
psegm1segm2[3,0,3] 0
psegm1segm2[3,0,4] 0
psegm1segm2[3,1,0] 0
psegm1segm2[3,1,1] 0
psegm1segm2[3,1,2] 0
psegm1segm2[3,1,3] 0
psegm1segm2[3,1,4] 0
psegm1segm2[3,2,0] 0
psegm1segm2[3,2,1] 0
psegm1segm2[3,2,2] 0
psegm1segm2[3,2,3] 0
psegm1segm2[3,2,4] 2.7403124307678745e+01
psegm1segm2[3,3,0] 0
psegm1segm2[3,3,1] 0
psegm1segm2[3,3,2] 0
psegm1segm2[3,3,3] 0
psegm1segm2[3,3,4] 0
psegm1segm2[3,4,0] 0
psegm1segm2[3,4,1] 0
psegm1segm2[3,4,2] 0
psegm1segm2[3,4,3] 0
psegm1segm2[3,4,4] 0
psegm1segm2[4,0,0] 0
psegm1segm2[4,0,1] 0
psegm1segm2[4,0,2] 0
psegm1segm2[4,0,3] 0
psegm1segm2[4,1,0] 0
psegm1segm2[4,1,1] 0
psegm1segm2[4,1,2] 0
psegm1segm2[4,1,3] 2.2105318396353923e+01
psegm1segm2[4,2,0] 0
psegm1segm2[4,2,1] 0
psegm1segm2[4,2,2] 0
psegm1segm2[4,2,3] 0
psegm1segm2[4,3,0] 0
psegm1segm2[4,3,1] 0
psegm1segm2[4,3,2] 0
psegm1segm2[4,3,3] 0
landa_min[1] 0
landa_min[2] 0
landa_min[3] 0
landa_min[4] 0
landa_max[1] 0
landa_max[2] 0
landa_max[3] 0
landa_max[4] 0
Rp[1,0] 1.9999998679047238e+01
Rp[1,1] 8.9999997358094475e+01
Rp[2,0] 4.4999999828697135e+01
Rp[2,1] 65
Rp[3,0] 70
Rp[3,1] 5.2596875832813048e+01
Rp[4,0] 8.6597121890691426e+01
Rp[4,1] 2.2638848756276573e+01
Lp[1,0] 30
Lp[1,1] 90
Lp[2,0] 35
Lp[2,1] 75
Lp[3,0] 70
Lp[3,1] 40
Lp[4,0] 80
Lp[4,1] 35
beta[1] 0
beta[2] 0
beta[3] 1
beta[4] 1
